! Valence + conduction bands
exclude_bands     = 1-4
num_bands         =  12
num_wann          =  12
conv_window       =    3

num_iter          = 1000

! Automatic generation of initial projections
auto_projections = .true.

! SYSTEM
begin unit_cell_cart
angstrom
        3.1769299507         0.0000000000         0.0000000000
       -1.5884649754         2.7513020434         0.0000000000
        0.0000000000         0.0000000000        16.5275001526
end unit_cell_cart

begin atoms_frac
Fe    0.000000000         0.000000000         0.508673012
B     0.666666985         0.333332986         0.546769023
B     0.333332986         0.666666985         0.546769023
end atoms_frac

! To plot the WF interpolated bandstructure
bands_plot       = .true.
bands_num_points = 50

begin kpoint_path
M 0.5 0 0 K 0.33333333 0.33333333 0
K 0.33333333 0.33333333 0  G 0 0 0
end kpoint_path

! KPOINTS
mp_grid = 11 11 1

begin kpoints
 0.0000000000  0.0000000000  0.0000000000
 0.0000000000  0.0909090909  0.0000000000
 0.0000000000  0.1818181818  0.0000000000
 0.0000000000  0.2727272727  0.0000000000
 0.0000000000  0.3636363636  0.0000000000
 0.0000000000  0.4545454545  0.0000000000
 0.0000000000 -0.4545454545  0.0000000000
 0.0000000000 -0.3636363636  0.0000000000
 0.0000000000 -0.2727272727  0.0000000000
 0.0000000000 -0.1818181818  0.0000000000
 0.0000000000 -0.0909090909  0.0000000000
 0.0909090909  0.0000000000  0.0000000000
 0.0909090909  0.0909090909  0.0000000000
 0.0909090909  0.1818181818  0.0000000000
 0.0909090909  0.2727272727  0.0000000000
 0.0909090909  0.3636363636  0.0000000000
 0.0909090909  0.4545454545  0.0000000000
 0.0909090909 -0.4545454545  0.0000000000
 0.0909090909 -0.3636363636  0.0000000000
 0.0909090909 -0.2727272727  0.0000000000
 0.0909090909 -0.1818181818  0.0000000000
 0.0909090909 -0.0909090909  0.0000000000
 0.1818181818  0.0000000000  0.0000000000
 0.1818181818  0.0909090909  0.0000000000
 0.1818181818  0.1818181818  0.0000000000
 0.1818181818  0.2727272727  0.0000000000
 0.1818181818  0.3636363636  0.0000000000
 0.1818181818  0.4545454545  0.0000000000
 0.1818181818 -0.4545454545  0.0000000000
 0.1818181818 -0.3636363636  0.0000000000
 0.1818181818 -0.2727272727  0.0000000000
 0.1818181818 -0.1818181818  0.0000000000
 0.1818181818 -0.0909090909  0.0000000000
 0.2727272727  0.0000000000  0.0000000000
 0.2727272727  0.0909090909  0.0000000000
 0.2727272727  0.1818181818  0.0000000000
 0.2727272727  0.2727272727  0.0000000000
 0.2727272727  0.3636363636  0.0000000000
 0.2727272727  0.4545454545  0.0000000000
 0.2727272727 -0.4545454545  0.0000000000
 0.2727272727 -0.3636363636  0.0000000000
 0.2727272727 -0.2727272727  0.0000000000
 0.2727272727 -0.1818181818  0.0000000000
 0.2727272727 -0.0909090909  0.0000000000
 0.3636363636  0.0000000000  0.0000000000
 0.3636363636  0.0909090909  0.0000000000
 0.3636363636  0.1818181818  0.0000000000
 0.3636363636  0.2727272727  0.0000000000
 0.3636363636  0.3636363636  0.0000000000
 0.3636363636  0.4545454545  0.0000000000
 0.3636363636 -0.4545454545  0.0000000000
 0.3636363636 -0.3636363636  0.0000000000
 0.3636363636 -0.2727272727  0.0000000000
 0.3636363636 -0.1818181818  0.0000000000
 0.3636363636 -0.0909090909  0.0000000000
 0.4545454545  0.0000000000  0.0000000000
 0.4545454545  0.0909090909  0.0000000000
 0.4545454545  0.1818181818  0.0000000000
 0.4545454545  0.2727272727  0.0000000000
 0.4545454545  0.3636363636  0.0000000000
 0.4545454545  0.4545454545  0.0000000000
 0.4545454545 -0.4545454545  0.0000000000
 0.4545454545 -0.3636363636  0.0000000000
 0.4545454545 -0.2727272727  0.0000000000
 0.4545454545 -0.1818181818  0.0000000000
 0.4545454545 -0.0909090909  0.0000000000
-0.4545454545  0.0000000000  0.0000000000
-0.4545454545  0.0909090909  0.0000000000
-0.4545454545  0.1818181818  0.0000000000
-0.4545454545  0.2727272727  0.0000000000
-0.4545454545  0.3636363636  0.0000000000
-0.4545454545  0.4545454545  0.0000000000
-0.4545454545 -0.4545454545  0.0000000000
-0.4545454545 -0.3636363636  0.0000000000
-0.4545454545 -0.2727272727  0.0000000000
-0.4545454545 -0.1818181818  0.0000000000
-0.4545454545 -0.0909090909  0.0000000000
-0.3636363636  0.0000000000  0.0000000000
-0.3636363636  0.0909090909  0.0000000000
-0.3636363636  0.1818181818  0.0000000000
-0.3636363636  0.2727272727  0.0000000000
-0.3636363636  0.3636363636  0.0000000000
-0.3636363636  0.4545454545  0.0000000000
-0.3636363636 -0.4545454545  0.0000000000
-0.3636363636 -0.3636363636  0.0000000000
-0.3636363636 -0.2727272727  0.0000000000
-0.3636363636 -0.1818181818  0.0000000000
-0.3636363636 -0.0909090909  0.0000000000
-0.2727272727  0.0000000000  0.0000000000
-0.2727272727  0.0909090909  0.0000000000
-0.2727272727  0.1818181818  0.0000000000
-0.2727272727  0.2727272727  0.0000000000
-0.2727272727  0.3636363636  0.0000000000
-0.2727272727  0.4545454545  0.0000000000
-0.2727272727 -0.4545454545  0.0000000000
-0.2727272727 -0.3636363636  0.0000000000
-0.2727272727 -0.2727272727  0.0000000000
-0.2727272727 -0.1818181818  0.0000000000
-0.2727272727 -0.0909090909  0.0000000000
-0.1818181818  0.0000000000  0.0000000000
-0.1818181818  0.0909090909  0.0000000000
-0.1818181818  0.1818181818  0.0000000000
-0.1818181818  0.2727272727  0.0000000000
-0.1818181818  0.3636363636  0.0000000000
-0.1818181818  0.4545454545  0.0000000000
-0.1818181818 -0.4545454545  0.0000000000
-0.1818181818 -0.3636363636  0.0000000000
-0.1818181818 -0.2727272727  0.0000000000
-0.1818181818 -0.1818181818  0.0000000000
-0.1818181818 -0.0909090909  0.0000000000
-0.0909090909  0.0000000000  0.0000000000
-0.0909090909  0.0909090909  0.0000000000
-0.0909090909  0.1818181818  0.0000000000
-0.0909090909  0.2727272727  0.0000000000
-0.0909090909  0.3636363636  0.0000000000
-0.0909090909  0.4545454545  0.0000000000
-0.0909090909 -0.4545454545  0.0000000000
-0.0909090909 -0.3636363636  0.0000000000
-0.0909090909 -0.2727272727  0.0000000000
-0.0909090909 -0.1818181818  0.0000000000
-0.0909090909 -0.0909090909  0.0000000000
end kpoints
