&CONTROL
  calculation = 'bands'
  prefix='bi2se3',
  pseudo_dir = '/public/home/jlyang/wuk/bin/pseudo',
  outdir='.'
/
&SYSTEM
  ibrav=  0, nat=  20, ntyp= 2,
  ecutwfc = 30,
  !input_dft='hse',
  nosym=.true.
  noinv=.true.
  nbnd = 340
  noncolin = .true.
  lspinorb = .true.
  vdw_corr='dft-d3'
  occupations = 'smearing',
  degauss = 0.002
/
&ELECTRONS
  diagonalization='david'
  conv_thr =  1.0d-6
  mixing_mode = 'local-TF'
  mixing_beta = 0.4
  mixing_ndim = 10
/
ATOMIC_SPECIES
Se 78.96 Se.rel-pbe-dn-kjpaw_psl.1.0.0.UPF
Bi 208.98 Bi.rel-pbe-dn-kjpaw_psl.1.0.0.UPF
CELL_PARAMETERS (angstrom)
        4.1380000114         0.0000000000         0.0000000000
       -2.0690000057         3.5836131308         0.0000000000
        0.0000000000         0.0000000000        52.0000000000
ATOMIC_POSITIONS crystal
Se     0.000000000         0.000000000         0.434579998
Se     0.666670024         0.333330005         0.299780011
Se     0.333330005         0.666670024         0.483370006
Se     0.333330005         0.666670024         0.367179990
Se     0.000000000         0.000000000         0.985350013
Se     0.666670024         0.333330005         0.618170023
Se     0.333330005         0.666670024         0.801760018
Se     0.000000000         0.000000000         0.666960001
Se     0.666670024         0.333330005         0.850549996
Se     0.000000000         0.000000000         0.550769985
Se     0.666670024         0.333330005         0.734359980
Se     0.333330005         0.666670024         0.917949975
Bi     0.000000000         0.000000000         0.330159992
Bi     0.666670024         0.333330005         0.513750017
Bi     0.666670024         0.333330005         0.404199988
Bi     0.000000000         0.000000000         0.880930007
Bi     0.333330005         0.666670024         0.697340012
Bi     0.000000000         0.000000000         0.771390021
Bi     0.666670024         0.333330005         0.954980016
Bi     0.333330005         0.666670024         0.587800026
K_POINTS crystal
49
 0.0000000000  0.0000000000  0.0000000000  1.0000000000
 0.0000000000  0.1428571429  0.0000000000  1.0000000000
 0.0000000000  0.2857142857  0.0000000000  1.0000000000
 0.0000000000  0.4285714286  0.0000000000  1.0000000000
 0.0000000000 -0.4285714286  0.0000000000  1.0000000000
 0.0000000000 -0.2857142857  0.0000000000  1.0000000000
 0.0000000000 -0.1428571429  0.0000000000  1.0000000000
 0.1428571429  0.0000000000  0.0000000000  1.0000000000
 0.1428571429  0.1428571429  0.0000000000  1.0000000000
 0.1428571429  0.2857142857  0.0000000000  1.0000000000
 0.1428571429  0.4285714286  0.0000000000  1.0000000000
 0.1428571429 -0.4285714286  0.0000000000  1.0000000000
 0.1428571429 -0.2857142857  0.0000000000  1.0000000000
 0.1428571429 -0.1428571429  0.0000000000  1.0000000000
 0.2857142857  0.0000000000  0.0000000000  1.0000000000
 0.2857142857  0.1428571429  0.0000000000  1.0000000000
 0.2857142857  0.2857142857  0.0000000000  1.0000000000
 0.2857142857  0.4285714286  0.0000000000  1.0000000000
 0.2857142857 -0.4285714286  0.0000000000  1.0000000000
 0.2857142857 -0.2857142857  0.0000000000  1.0000000000
 0.2857142857 -0.1428571429  0.0000000000  1.0000000000
 0.4285714286  0.0000000000  0.0000000000  1.0000000000
 0.4285714286  0.1428571429  0.0000000000  1.0000000000
 0.4285714286  0.2857142857  0.0000000000  1.0000000000
 0.4285714286  0.4285714286  0.0000000000  1.0000000000
 0.4285714286 -0.4285714286  0.0000000000  1.0000000000
 0.4285714286 -0.2857142857  0.0000000000  1.0000000000
 0.4285714286 -0.1428571429  0.0000000000  1.0000000000
-0.4285714286  0.0000000000  0.0000000000  1.0000000000
-0.4285714286  0.1428571429  0.0000000000  1.0000000000
-0.4285714286  0.2857142857  0.0000000000  1.0000000000
-0.4285714286  0.4285714286  0.0000000000  1.0000000000
-0.4285714286 -0.4285714286  0.0000000000  1.0000000000
-0.4285714286 -0.2857142857  0.0000000000  1.0000000000
-0.4285714286 -0.1428571429  0.0000000000  1.0000000000
-0.2857142857  0.0000000000  0.0000000000  1.0000000000
-0.2857142857  0.1428571429  0.0000000000  1.0000000000
-0.2857142857  0.2857142857  0.0000000000  1.0000000000
-0.2857142857  0.4285714286  0.0000000000  1.0000000000
-0.2857142857 -0.4285714286  0.0000000000  1.0000000000
-0.2857142857 -0.2857142857  0.0000000000  1.0000000000
-0.2857142857 -0.1428571429  0.0000000000  1.0000000000
-0.1428571429  0.0000000000  0.0000000000  1.0000000000
-0.1428571429  0.1428571429  0.0000000000  1.0000000000
-0.1428571429  0.2857142857  0.0000000000  1.0000000000
-0.1428571429  0.4285714286  0.0000000000  1.0000000000
-0.1428571429 -0.4285714286  0.0000000000  1.0000000000
-0.1428571429 -0.2857142857  0.0000000000  1.0000000000
-0.1428571429 -0.1428571429  0.0000000000  1.0000000000
