&inputpp
  outdir     =  './'
  prefix     =  'si2'
  seedname   =  'si2'
  !write_amn  = .true.
  !write_mmn  = .true.
  !write_unk  = .true.
  ! SCDM keywords
  scdm_proj         = true
  scdm_entanglement = 'erfc'
  scdm_mu           =  10
  scdm_sigma        =  2
/
