&CONTROL
  calculation = 'scf'
  prefix='si2',
  pseudo_dir = '/public/home/jlyang/wuk/bin/pseudo',
  outdir='.'
/
&SYSTEM
  ibrav=  0, nat=  2, ntyp= 1,
  ecutwfc = 100
  nbnd=14
  nosym=.true.
  noinv=.true.
/
&ELECTRONS
  diagonalization='david'
  mixing_beta = 0.7
  conv_thr =  1.0d-8
/
ATOMIC_SPECIES
Si 28.086 Si_ONCV_PBE-1.0.upf
CELL_PARAMETERS (angstrom)
2.7344 0 2.7344
2.7344 2.7344 0
0 2.7344 2.7344
ATOMIC_POSITIONS crystal
Si 0 0 0
Si 0.25 0.25 0.25
K_POINTS crystal
125
 0.0000000000  0.0000000000  0.0000000000  1.0000000000
 0.0000000000  0.0000000000  0.2000000000  1.0000000000
 0.0000000000  0.0000000000  0.4000000000  1.0000000000
 0.0000000000  0.0000000000 -0.4000000000  1.0000000000
 0.0000000000  0.0000000000 -0.2000000000  1.0000000000
 0.0000000000  0.2000000000  0.0000000000  1.0000000000
 0.0000000000  0.2000000000  0.2000000000  1.0000000000
 0.0000000000  0.2000000000  0.4000000000  1.0000000000
 0.0000000000  0.2000000000 -0.4000000000  1.0000000000
 0.0000000000  0.2000000000 -0.2000000000  1.0000000000
 0.0000000000  0.4000000000  0.0000000000  1.0000000000
 0.0000000000  0.4000000000  0.2000000000  1.0000000000
 0.0000000000  0.4000000000  0.4000000000  1.0000000000
 0.0000000000  0.4000000000 -0.4000000000  1.0000000000
 0.0000000000  0.4000000000 -0.2000000000  1.0000000000
 0.0000000000 -0.4000000000  0.0000000000  1.0000000000
 0.0000000000 -0.4000000000  0.2000000000  1.0000000000
 0.0000000000 -0.4000000000  0.4000000000  1.0000000000
 0.0000000000 -0.4000000000 -0.4000000000  1.0000000000
 0.0000000000 -0.4000000000 -0.2000000000  1.0000000000
 0.0000000000 -0.2000000000  0.0000000000  1.0000000000
 0.0000000000 -0.2000000000  0.2000000000  1.0000000000
 0.0000000000 -0.2000000000  0.4000000000  1.0000000000
 0.0000000000 -0.2000000000 -0.4000000000  1.0000000000
 0.0000000000 -0.2000000000 -0.2000000000  1.0000000000
 0.2000000000  0.0000000000  0.0000000000  1.0000000000
 0.2000000000  0.0000000000  0.2000000000  1.0000000000
 0.2000000000  0.0000000000  0.4000000000  1.0000000000
 0.2000000000  0.0000000000 -0.4000000000  1.0000000000
 0.2000000000  0.0000000000 -0.2000000000  1.0000000000
 0.2000000000  0.2000000000  0.0000000000  1.0000000000
 0.2000000000  0.2000000000  0.2000000000  1.0000000000
 0.2000000000  0.2000000000  0.4000000000  1.0000000000
 0.2000000000  0.2000000000 -0.4000000000  1.0000000000
 0.2000000000  0.2000000000 -0.2000000000  1.0000000000
 0.2000000000  0.4000000000  0.0000000000  1.0000000000
 0.2000000000  0.4000000000  0.2000000000  1.0000000000
 0.2000000000  0.4000000000  0.4000000000  1.0000000000
 0.2000000000  0.4000000000 -0.4000000000  1.0000000000
 0.2000000000  0.4000000000 -0.2000000000  1.0000000000
 0.2000000000 -0.4000000000  0.0000000000  1.0000000000
 0.2000000000 -0.4000000000  0.2000000000  1.0000000000
 0.2000000000 -0.4000000000  0.4000000000  1.0000000000
 0.2000000000 -0.4000000000 -0.4000000000  1.0000000000
 0.2000000000 -0.4000000000 -0.2000000000  1.0000000000
 0.2000000000 -0.2000000000  0.0000000000  1.0000000000
 0.2000000000 -0.2000000000  0.2000000000  1.0000000000
 0.2000000000 -0.2000000000  0.4000000000  1.0000000000
 0.2000000000 -0.2000000000 -0.4000000000  1.0000000000
 0.2000000000 -0.2000000000 -0.2000000000  1.0000000000
 0.4000000000  0.0000000000  0.0000000000  1.0000000000
 0.4000000000  0.0000000000  0.2000000000  1.0000000000
 0.4000000000  0.0000000000  0.4000000000  1.0000000000
 0.4000000000  0.0000000000 -0.4000000000  1.0000000000
 0.4000000000  0.0000000000 -0.2000000000  1.0000000000
 0.4000000000  0.2000000000  0.0000000000  1.0000000000
 0.4000000000  0.2000000000  0.2000000000  1.0000000000
 0.4000000000  0.2000000000  0.4000000000  1.0000000000
 0.4000000000  0.2000000000 -0.4000000000  1.0000000000
 0.4000000000  0.2000000000 -0.2000000000  1.0000000000
 0.4000000000  0.4000000000  0.0000000000  1.0000000000
 0.4000000000  0.4000000000  0.2000000000  1.0000000000
 0.4000000000  0.4000000000  0.4000000000  1.0000000000
 0.4000000000  0.4000000000 -0.4000000000  1.0000000000
 0.4000000000  0.4000000000 -0.2000000000  1.0000000000
 0.4000000000 -0.4000000000  0.0000000000  1.0000000000
 0.4000000000 -0.4000000000  0.2000000000  1.0000000000
 0.4000000000 -0.4000000000  0.4000000000  1.0000000000
 0.4000000000 -0.4000000000 -0.4000000000  1.0000000000
 0.4000000000 -0.4000000000 -0.2000000000  1.0000000000
 0.4000000000 -0.2000000000  0.0000000000  1.0000000000
 0.4000000000 -0.2000000000  0.2000000000  1.0000000000
 0.4000000000 -0.2000000000  0.4000000000  1.0000000000
 0.4000000000 -0.2000000000 -0.4000000000  1.0000000000
 0.4000000000 -0.2000000000 -0.2000000000  1.0000000000
-0.4000000000  0.0000000000  0.0000000000  1.0000000000
-0.4000000000  0.0000000000  0.2000000000  1.0000000000
-0.4000000000  0.0000000000  0.4000000000  1.0000000000
-0.4000000000  0.0000000000 -0.4000000000  1.0000000000
-0.4000000000  0.0000000000 -0.2000000000  1.0000000000
-0.4000000000  0.2000000000  0.0000000000  1.0000000000
-0.4000000000  0.2000000000  0.2000000000  1.0000000000
-0.4000000000  0.2000000000  0.4000000000  1.0000000000
-0.4000000000  0.2000000000 -0.4000000000  1.0000000000
-0.4000000000  0.2000000000 -0.2000000000  1.0000000000
-0.4000000000  0.4000000000  0.0000000000  1.0000000000
-0.4000000000  0.4000000000  0.2000000000  1.0000000000
-0.4000000000  0.4000000000  0.4000000000  1.0000000000
-0.4000000000  0.4000000000 -0.4000000000  1.0000000000
-0.4000000000  0.4000000000 -0.2000000000  1.0000000000
-0.4000000000 -0.4000000000  0.0000000000  1.0000000000
-0.4000000000 -0.4000000000  0.2000000000  1.0000000000
-0.4000000000 -0.4000000000  0.4000000000  1.0000000000
-0.4000000000 -0.4000000000 -0.4000000000  1.0000000000
-0.4000000000 -0.4000000000 -0.2000000000  1.0000000000
-0.4000000000 -0.2000000000  0.0000000000  1.0000000000
-0.4000000000 -0.2000000000  0.2000000000  1.0000000000
-0.4000000000 -0.2000000000  0.4000000000  1.0000000000
-0.4000000000 -0.2000000000 -0.4000000000  1.0000000000
-0.4000000000 -0.2000000000 -0.2000000000  1.0000000000
-0.2000000000  0.0000000000  0.0000000000  1.0000000000
-0.2000000000  0.0000000000  0.2000000000  1.0000000000
-0.2000000000  0.0000000000  0.4000000000  1.0000000000
-0.2000000000  0.0000000000 -0.4000000000  1.0000000000
-0.2000000000  0.0000000000 -0.2000000000  1.0000000000
-0.2000000000  0.2000000000  0.0000000000  1.0000000000
-0.2000000000  0.2000000000  0.2000000000  1.0000000000
-0.2000000000  0.2000000000  0.4000000000  1.0000000000
-0.2000000000  0.2000000000 -0.4000000000  1.0000000000
-0.2000000000  0.2000000000 -0.2000000000  1.0000000000
-0.2000000000  0.4000000000  0.0000000000  1.0000000000
-0.2000000000  0.4000000000  0.2000000000  1.0000000000
-0.2000000000  0.4000000000  0.4000000000  1.0000000000
-0.2000000000  0.4000000000 -0.4000000000  1.0000000000
-0.2000000000  0.4000000000 -0.2000000000  1.0000000000
-0.2000000000 -0.4000000000  0.0000000000  1.0000000000
-0.2000000000 -0.4000000000  0.2000000000  1.0000000000
-0.2000000000 -0.4000000000  0.4000000000  1.0000000000
-0.2000000000 -0.4000000000 -0.4000000000  1.0000000000
-0.2000000000 -0.4000000000 -0.2000000000  1.0000000000
-0.2000000000 -0.2000000000  0.0000000000  1.0000000000
-0.2000000000 -0.2000000000  0.2000000000  1.0000000000
-0.2000000000 -0.2000000000  0.4000000000  1.0000000000
-0.2000000000 -0.2000000000 -0.4000000000  1.0000000000
-0.2000000000 -0.2000000000 -0.2000000000  1.0000000000
