! Valence + conduction bands
num_bands         =  14
num_wann          =  14
conv_tol          = 1.0d-10
conv_window       =    3

num_iter          = 1000
dis_num_iter      = 200
!dis_win_min       = -8
!dis_win_max       = 10
!dis_froz_min      = -8
!dis_froz_max      = 10
!length_unit       =  bohr

! Automatic generation of initial projections
auto_projections = .true.

! SYSTEM
begin unit_cell_cart
angstrom
2.7344 0 2.7344
2.7344 2.7344 0
0 2.7344 2.7344
end unit_cell_cart

begin atoms_frac
Si 0 0 0
Si 0.25 0.25 0.25
end atoms_frac

! To plot the WF interpolated bandstructure
bands_plot       = .true.
bands_num_points = 45

begin kpoint_path
G 0.00000  0.00000 0.0000 X 0.00000  0.50000 0.5000
end kpoint_path

! KPOINTS
mp_grid = 5 5 5

begin kpoints
 0.0000000000  0.0000000000  0.0000000000
 0.0000000000  0.0000000000  0.2000000000
 0.0000000000  0.0000000000  0.4000000000
 0.0000000000  0.0000000000 -0.4000000000
 0.0000000000  0.0000000000 -0.2000000000
 0.0000000000  0.2000000000  0.0000000000
 0.0000000000  0.2000000000  0.2000000000
 0.0000000000  0.2000000000  0.4000000000
 0.0000000000  0.2000000000 -0.4000000000
 0.0000000000  0.2000000000 -0.2000000000
 0.0000000000  0.4000000000  0.0000000000
 0.0000000000  0.4000000000  0.2000000000
 0.0000000000  0.4000000000  0.4000000000
 0.0000000000  0.4000000000 -0.4000000000
 0.0000000000  0.4000000000 -0.2000000000
 0.0000000000 -0.4000000000  0.0000000000
 0.0000000000 -0.4000000000  0.2000000000
 0.0000000000 -0.4000000000  0.4000000000
 0.0000000000 -0.4000000000 -0.4000000000
 0.0000000000 -0.4000000000 -0.2000000000
 0.0000000000 -0.2000000000  0.0000000000
 0.0000000000 -0.2000000000  0.2000000000
 0.0000000000 -0.2000000000  0.4000000000
 0.0000000000 -0.2000000000 -0.4000000000
 0.0000000000 -0.2000000000 -0.2000000000
 0.2000000000  0.0000000000  0.0000000000
 0.2000000000  0.0000000000  0.2000000000
 0.2000000000  0.0000000000  0.4000000000
 0.2000000000  0.0000000000 -0.4000000000
 0.2000000000  0.0000000000 -0.2000000000
 0.2000000000  0.2000000000  0.0000000000
 0.2000000000  0.2000000000  0.2000000000
 0.2000000000  0.2000000000  0.4000000000
 0.2000000000  0.2000000000 -0.4000000000
 0.2000000000  0.2000000000 -0.2000000000
 0.2000000000  0.4000000000  0.0000000000
 0.2000000000  0.4000000000  0.2000000000
 0.2000000000  0.4000000000  0.4000000000
 0.2000000000  0.4000000000 -0.4000000000
 0.2000000000  0.4000000000 -0.2000000000
 0.2000000000 -0.4000000000  0.0000000000
 0.2000000000 -0.4000000000  0.2000000000
 0.2000000000 -0.4000000000  0.4000000000
 0.2000000000 -0.4000000000 -0.4000000000
 0.2000000000 -0.4000000000 -0.2000000000
 0.2000000000 -0.2000000000  0.0000000000
 0.2000000000 -0.2000000000  0.2000000000
 0.2000000000 -0.2000000000  0.4000000000
 0.2000000000 -0.2000000000 -0.4000000000
 0.2000000000 -0.2000000000 -0.2000000000
 0.4000000000  0.0000000000  0.0000000000
 0.4000000000  0.0000000000  0.2000000000
 0.4000000000  0.0000000000  0.4000000000
 0.4000000000  0.0000000000 -0.4000000000
 0.4000000000  0.0000000000 -0.2000000000
 0.4000000000  0.2000000000  0.0000000000
 0.4000000000  0.2000000000  0.2000000000
 0.4000000000  0.2000000000  0.4000000000
 0.4000000000  0.2000000000 -0.4000000000
 0.4000000000  0.2000000000 -0.2000000000
 0.4000000000  0.4000000000  0.0000000000
 0.4000000000  0.4000000000  0.2000000000
 0.4000000000  0.4000000000  0.4000000000
 0.4000000000  0.4000000000 -0.4000000000
 0.4000000000  0.4000000000 -0.2000000000
 0.4000000000 -0.4000000000  0.0000000000
 0.4000000000 -0.4000000000  0.2000000000
 0.4000000000 -0.4000000000  0.4000000000
 0.4000000000 -0.4000000000 -0.4000000000
 0.4000000000 -0.4000000000 -0.2000000000
 0.4000000000 -0.2000000000  0.0000000000
 0.4000000000 -0.2000000000  0.2000000000
 0.4000000000 -0.2000000000  0.4000000000
 0.4000000000 -0.2000000000 -0.4000000000
 0.4000000000 -0.2000000000 -0.2000000000
-0.4000000000  0.0000000000  0.0000000000
-0.4000000000  0.0000000000  0.2000000000
-0.4000000000  0.0000000000  0.4000000000
-0.4000000000  0.0000000000 -0.4000000000
-0.4000000000  0.0000000000 -0.2000000000
-0.4000000000  0.2000000000  0.0000000000
-0.4000000000  0.2000000000  0.2000000000
-0.4000000000  0.2000000000  0.4000000000
-0.4000000000  0.2000000000 -0.4000000000
-0.4000000000  0.2000000000 -0.2000000000
-0.4000000000  0.4000000000  0.0000000000
-0.4000000000  0.4000000000  0.2000000000
-0.4000000000  0.4000000000  0.4000000000
-0.4000000000  0.4000000000 -0.4000000000
-0.4000000000  0.4000000000 -0.2000000000
-0.4000000000 -0.4000000000  0.0000000000
-0.4000000000 -0.4000000000  0.2000000000
-0.4000000000 -0.4000000000  0.4000000000
-0.4000000000 -0.4000000000 -0.4000000000
-0.4000000000 -0.4000000000 -0.2000000000
-0.4000000000 -0.2000000000  0.0000000000
-0.4000000000 -0.2000000000  0.2000000000
-0.4000000000 -0.2000000000  0.4000000000
-0.4000000000 -0.2000000000 -0.4000000000
-0.4000000000 -0.2000000000 -0.2000000000
-0.2000000000  0.0000000000  0.0000000000
-0.2000000000  0.0000000000  0.2000000000
-0.2000000000  0.0000000000  0.4000000000
-0.2000000000  0.0000000000 -0.4000000000
-0.2000000000  0.0000000000 -0.2000000000
-0.2000000000  0.2000000000  0.0000000000
-0.2000000000  0.2000000000  0.2000000000
-0.2000000000  0.2000000000  0.4000000000
-0.2000000000  0.2000000000 -0.4000000000
-0.2000000000  0.2000000000 -0.2000000000
-0.2000000000  0.4000000000  0.0000000000
-0.2000000000  0.4000000000  0.2000000000
-0.2000000000  0.4000000000  0.4000000000
-0.2000000000  0.4000000000 -0.4000000000
-0.2000000000  0.4000000000 -0.2000000000
-0.2000000000 -0.4000000000  0.0000000000
-0.2000000000 -0.4000000000  0.2000000000
-0.2000000000 -0.4000000000  0.4000000000
-0.2000000000 -0.4000000000 -0.4000000000
-0.2000000000 -0.4000000000 -0.2000000000
-0.2000000000 -0.2000000000  0.0000000000
-0.2000000000 -0.2000000000  0.2000000000
-0.2000000000 -0.2000000000  0.4000000000
-0.2000000000 -0.2000000000 -0.4000000000
-0.2000000000 -0.2000000000 -0.2000000000
end kpoints
