! Valence + conduction bands
exclude_bands     = 1-240,361-370
num_bands         =  120
num_wann          =  120
conv_window       =    3

num_iter          = 1000
!dis_num_iter      = 2000
!dis_win_min       = -6
!dis_win_max       = 6
!dis_froz_min      = -8
!dis_froz_max      = 10
!length_unit       =  bohr
spinors = true

! Automatic generation of initial projections
begin projections
Bi:  l=1
Se: l=1
end projections

! SYSTEM
begin unit_cell_cart
angstrom
        4.1380000114         0.0000000000         0.0000000000
       -2.0690000057         3.5836131308         0.0000000000
        0.0000000000         0.0000000000        52.0000000000
end unit_cell_cart

begin atoms_frac
Se     0.000000000         0.000000000         0.434579998
Se     0.666670024         0.333330005         0.299780011
Se     0.333330005         0.666670024         0.483370006
Se     0.333330005         0.666670024         0.367179990
Se     0.000000000         0.000000000         0.985350013
Se     0.666670024         0.333330005         0.618170023
Se     0.333330005         0.666670024         0.801760018
Se     0.000000000         0.000000000         0.666960001
Se     0.666670024         0.333330005         0.850549996
Se     0.000000000         0.000000000         0.550769985
Se     0.666670024         0.333330005         0.734359980
Se     0.333330005         0.666670024         0.917949975
Bi     0.000000000         0.000000000         0.330159992
Bi     0.666670024         0.333330005         0.513750017
Bi     0.666670024         0.333330005         0.404199988
Bi     0.000000000         0.000000000         0.880930007
Bi     0.333330005         0.666670024         0.697340012
Bi     0.000000000         0.000000000         0.771390021
Bi     0.666670024         0.333330005         0.954980016
Bi     0.333330005         0.666670024         0.587800026
end atoms_frac

! To plot the WF interpolated bandstructure
bands_plot       = .true.
bands_num_points = 50

begin kpoint_path
K 0.33333333 0.33333333 0  G 0 0 0
G 0 0 0 M 0.5 0 0
end kpoint_path

! KPOINTS
mp_grid = 7 7 1

begin kpoints
 0.0000000000  0.0000000000  0.0000000000
 0.0000000000  0.1428571429  0.0000000000
 0.0000000000  0.2857142857  0.0000000000
 0.0000000000  0.4285714286  0.0000000000
 0.0000000000 -0.4285714286  0.0000000000
 0.0000000000 -0.2857142857  0.0000000000
 0.0000000000 -0.1428571429  0.0000000000
 0.1428571429  0.0000000000  0.0000000000
 0.1428571429  0.1428571429  0.0000000000
 0.1428571429  0.2857142857  0.0000000000
 0.1428571429  0.4285714286  0.0000000000
 0.1428571429 -0.4285714286  0.0000000000
 0.1428571429 -0.2857142857  0.0000000000
 0.1428571429 -0.1428571429  0.0000000000
 0.2857142857  0.0000000000  0.0000000000
 0.2857142857  0.1428571429  0.0000000000
 0.2857142857  0.2857142857  0.0000000000
 0.2857142857  0.4285714286  0.0000000000
 0.2857142857 -0.4285714286  0.0000000000
 0.2857142857 -0.2857142857  0.0000000000
 0.2857142857 -0.1428571429  0.0000000000
 0.4285714286  0.0000000000  0.0000000000
 0.4285714286  0.1428571429  0.0000000000
 0.4285714286  0.2857142857  0.0000000000
 0.4285714286  0.4285714286  0.0000000000
 0.4285714286 -0.4285714286  0.0000000000
 0.4285714286 -0.2857142857  0.0000000000
 0.4285714286 -0.1428571429  0.0000000000
-0.4285714286  0.0000000000  0.0000000000
-0.4285714286  0.1428571429  0.0000000000
-0.4285714286  0.2857142857  0.0000000000
-0.4285714286  0.4285714286  0.0000000000
-0.4285714286 -0.4285714286  0.0000000000
-0.4285714286 -0.2857142857  0.0000000000
-0.4285714286 -0.1428571429  0.0000000000
-0.2857142857  0.0000000000  0.0000000000
-0.2857142857  0.1428571429  0.0000000000
-0.2857142857  0.2857142857  0.0000000000
-0.2857142857  0.4285714286  0.0000000000
-0.2857142857 -0.4285714286  0.0000000000
-0.2857142857 -0.2857142857  0.0000000000
-0.2857142857 -0.1428571429  0.0000000000
-0.1428571429  0.0000000000  0.0000000000
-0.1428571429  0.1428571429  0.0000000000
-0.1428571429  0.2857142857  0.0000000000
-0.1428571429  0.4285714286  0.0000000000
-0.1428571429 -0.4285714286  0.0000000000
-0.1428571429 -0.2857142857  0.0000000000
-0.1428571429 -0.1428571429  0.0000000000
end kpoints
